NAME          
ROWS
 N  OBJ
 L  c1
 L  c2
COLUMNS
    MARKER    'MARKER'                 'INTORG'
    x[1]      c1        410
    x[1]      c2        103
    x[1]      OBJ       -755
    x[2]      c1        473
    x[2]      c2        174
    x[2]      OBJ       -983
    x[3]      c1        942
    x[3]      c2        272
    x[3]      OBJ       -748
    x[4]      c1        713
    x[4]      c2        261
    x[4]      OBJ       -475
    x[5]      c1        975
    x[5]      c2        446
    x[5]      OBJ       -838
    x[6]      c1        951
    x[6]      c2        639
    x[6]      OBJ       -272
    x[7]      c1        62
    x[7]      c2        122
    x[7]      OBJ       -690
    x[8]      c1        801
    x[8]      c2        469
    x[8]      OBJ       -573
    x[9]      c1        9
    x[9]      c2        349
    x[9]      OBJ       -56
    x[10]     c1        190
    x[10]     c2        860
    x[10]     OBJ       -399
RHS
    rhs       c1        2763
    rhs       c2        1848
RANGES
BOUNDS
 BV bounds    x[1]
 BV bounds    x[2]
 BV bounds    x[3]
 BV bounds    x[4]
 BV bounds    x[5]
 BV bounds    x[6]
 BV bounds    x[7]
 BV bounds    x[8]
 BV bounds    x[9]
 BV bounds    x[10]
ENDATA
